c Sudoku solution
p cnf 729 0
131 0
169 0
196 0
262 0
273 0
339 0
346 0
363 0
382 0
394 0
525 0
538 0
599 0
289 0
616 0
647 0
691 0
371 0
824 0
853 0
877 0
911 0
421 0
926 0
236 0
975 0
779 0
819 0
629 0
178 0
998 0
892 0
793 0
984 0
933 0
835 0
967 0
123 0
112 0
214 0
315 0
718 0
722 0
737 0
683 0
488 0
495 0
587 0
417 0
513 0
443 0
459 0
949 0
952 0
542 0
185 0
297 0
144 0
157 0
358 0
228 0
327 0
848 0
668 0
655 0
251 0
245 0
741 0
866 0
786 0
881 0
561 0
754 0
765 0
556 0
464 0
432 0
634 0
672 0
476 0
574 0
